NAME: I20909-n98-k7
COMMENT : (Fake et al, No of trucks: 7, Optimal value: )
TYPE : CVRP
DIMENSION : 98
EDGE_WEIGHT_TYPE : EUC_2D
CAPACITY : 17
NODE_COORD_SECTION
1 672 724
2 440 466
3 800 53
4 464 402
5 675 973
6 609 889
7 635 217
8 369 577
9 204 665
10 402 948
11 967 1000
12 292 514
13 500 474
14 727 472
15 989 349
16 317 158
17 849 307
18 596 176
19 716 616
20 601 120
21 919 71
22 651 944
23 602 650
24 678 125
25 418 279
26 561 418
27 945 655
28 238 886
29 946 619
30 422 740
31 225 313
32 887 148
33 414 448
34 975 755
35 458 681
36 690 183
37 162 21
38 12 353
39 767 72
40 347 721
41 33 579
42 618 157
43 107 792
44 852 948
45 827 135
46 800 588
47 499 954
48 710 775
49 314 512
50 809 592
51 883 841
52 939 477
53 685 903
54 987 390
55 738 312
56 153 424
57 96 582
58 318 877
59 644 351
60 144 784
61 715 862
62 357 964
63 920 734
64 65 960
65 384 955
66 798 76
67 841 137
68 863 234
69 918 4
70 338 896
71 779 768
72 321 819
73 47 599
74 546 927
75 419 560
76 337 136
77 962 805
78 352 457
79 884 438
80 13 571
81 380 341
82 624 61
83 623 203
84 588 374
85 797 141
86 602 397
87 441 268
88 563 238
89 859 537
90 236 951
91 836 591
92 605 803
93 805 401
94 50 577
95 664 109
96 743 767
97 697 372
98 240 250
DEMAND_SECTION
1 0
2 1
3 1
4 1
5 1
6 1
7 1
8 1
9 1
10 1
11 1
12 1
13 1
14 1
15 1
16 1
17 1
18 1
19 1
20 1
21 1
22 1
23 1
24 1
25 1
26 1
27 1
28 1
29 1
30 1
31 1
32 1
33 1
34 1
35 1
36 1
37 1
38 1
39 1
40 1
41 1
42 1
43 1
44 1
45 1
46 1
47 1
48 1
49 1
50 1
51 1
52 1
53 1
54 1
55 1
56 1
57 1
58 1
59 1
60 1
61 1
62 1
63 1
64 1
65 1
66 1
67 1
68 1
69 1
70 1
71 1
72 1
73 1
74 1
75 1
76 1
77 1
78 1
79 1
80 1
81 1
82 1
83 1
84 1
85 1
86 1
87 1
88 1
89 1
90 1
91 1
92 1
93 1
94 1
95 1
96 1
97 1
98 1
DEPOT_SECTION
 1
 -1
 EOF 